p ds 99 178
1 2
1 10
2 3
2 11
3 12
3 4
4 5
4 13
5 14
5 6
6 7
6 15
7 16
7 8
8 9
8 17
9 18
10 11
10 19
11 20
11 12
12 13
12 21
13 22
13 14
14 15
14 23
15 24
15 16
16 17
16 25
17 18
17 26
18 27
19 28
19 20
20 21
20 29
21 30
21 22
22 23
22 31
23 32
23 24
24 25
24 33
25 26
25 34
26 27
26 35
27 36
28 29
28 37
29 38
29 30
30 39
30 31
31 40
31 32
32 33
32 41
33 34
33 42
34 35
34 43
35 36
35 44
36 45
37 46
37 38
38 47
38 39
39 48
39 40
40 41
40 49
41 42
41 50
42 43
42 51
43 44
43 52
44 45
44 53
45 54
46 55
46 47
47 56
47 48
48 49
48 57
49 50
49 58
50 51
50 59
51 52
51 60
52 53
52 61
53 62
53 54
54 63
55 64
55 56
56 57
56 65
57 66
57 58
58 59
58 67
59 68
59 60
60 61
60 69
61 70
61 62
62 63
62 71
63 72
64 65
64 73
65 74
65 66
66 75
66 67
67 76
67 68
68 77
68 69
69 78
69 70
70 71
70 79
71 80
71 72
72 81
73 82
73 74
74 75
74 83
75 84
75 76
76 77
76 85
77 86
77 78
78 87
78 79
79 88
79 80
80 81
80 89
81 90
82 83
82 91
83 92
83 84
84 85
84 93
85 94
85 86
86 95
86 87
87 96
87 88
88 89
88 97
89 90
89 98
90 99
91 92
92 93
93 94
94 95
95 96
96 97
97 98
98 99
